networks/zoo_43_168/zoo_43_168-lower.sol
<?xml version = "1.0" encoding="UTF-8" standalone="yes"?>
<CPLEXSolution version="1.2">
 <header
   problemName="networks/zoo_43_168/zoo_43_168-lower.lp"
   solutionName="incumbent"
   solutionIndex="-1"
   objectiveValue="17"
   solutionTypeValue="3"
   solutionTypeString="primal"
   solutionStatusValue="101"
   solutionStatusString="integer optimal solution"
   solutionMethodString="mip"
   primalFeasible="1"
   dualFeasible="1"
   MIPNodes="0"
   MIPIterations="0"
   writeLevel="3"/>
 <quality
   epInt="1.0000000000000001e-05"
   epRHS="9.9999999999999995e-07"
   maxIntInfeas="0"
   maxPrimalInfeas="0"
   maxX="1"
   maxSlack="1"/>
 <variables>
  <variable name="Y(1,2)" index="1" value="1"/>
  <variable name="Y(2,3)" index="40" value="1"/>
  <variable name="Y(3,4)" index="79" value="1"/>
  <variable name="Y(4,8)" index="121" value="1"/>
  <variable name="Y(5,9)" index="160" value="1"/>
  <variable name="Y(6,10)" index="199" value="1"/>
  <variable name="Y(7,11)" index="238" value="1"/>
  <variable name="Y(8,12)" index="277" value="1"/>
  <variable name="Y(9,13)" index="316" value="1"/>
  <variable name="Y(10,15)" index="356" value="1"/>
  <variable name="Y(11,17)" index="396" value="1"/>
  <variable name="Y(12,18)" index="435" value="1"/>
  <variable name="Y(13,19)" index="474" value="1"/>
  <variable name="Y(14,21)" index="514" value="1"/>
  <variable name="Y(110,1)" index="4142" value="1"/>
  <variable name="Y(148,5)" index="5590" value="1"/>
  <variable name="Y(155,14)" index="5865" value="1"/>
  <variable name="X(1,4,2)" index="6385" value="1"/>
  <variable name="X(1,13,1)" index="6552" value="1"/>
  <variable name="X(1,23,110)" index="6829" value="1"/>
  <variable name="X(2,20,58)" index="6945" value="1"/>
  <variable name="X(2,24,1)" index="7056" value="1"/>
  <variable name="X(3,4,15)" index="7238" value="1"/>
  <variable name="X(3,14,16)" index="7407" value="1"/>
  <variable name="X(3,25,2)" index="7561" value="1"/>
  <variable name="X(4,1,32)" index="7759" value="1"/>
  <variable name="X(4,3,2)" index="7897" value="1"/>
  <variable name="X(4,26,3)" index="8066" value="1"/>
  <variable name="X(5,8,39)" index="8270" value="1"/>
  <variable name="X(5,9,5)" index="8404" value="1"/>
  <variable name="X(5,27,148)" index="8715" value="1"/>
  <variable name="X(6,9,48)" index="8783" value="1"/>
  <variable name="X(6,15,46)" index="8949" value="1"/>
  <variable name="X(7,2,58)" index="9129" value="1"/>
  <variable name="X(7,8,59)" index="9298" value="1"/>
  <variable name="X(8,5,5)" index="9412" value="1"/>
  <variable name="X(8,10,6)" index="9581" value="1"/>
  <variable name="X(8,18,42)" index="9785" value="1"/>
  <variable name="X(8,20,39)" index="9950" value="1"/>
  <variable name="X(8,30,4)" index="10083" value="1"/>
  <variable name="X(9,5,48)" index="10295" value="1"/>
  <variable name="X(9,15,43)" index="10458" value="1"/>
  <variable name="X(9,31,5)" index="10588" value="1"/>
  <variable name="X(10,32,6)" index="10757" value="1"/>
  <variable name="X(11,19,24)" index="10943" value="1"/>
  <variable name="X(11,20,72)" index="11159" value="1"/>
  <variable name="X(11,33,7)" index="11262" value="1"/>
  <variable name="X(12,19,13)" index="11436" value="1"/>
  <variable name="X(12,21,57)" index="11648" value="1"/>
  <variable name="X(12,34,8)" index="11767" value="1"/>
  <variable name="X(13,1,81)" index="12008" value="1"/>
  <variable name="X(13,14,1)" index="12096" value="1"/>
  <variable name="X(13,21,8)" index="12271" value="1"/>
  <variable name="X(13,35,9)" index="12440" value="1"/>
  <variable name="X(14,3,39)" index="12638" value="1"/>
  <variable name="X(14,13,19)" index="12786" value="1"/>
  <variable name="X(14,20,1)" index="12936" value="1"/>
  <variable name="X(14,36,155)" index="13258" value="1"/>
  <variable name="X(15,9,74)" index="13345" value="1"/>
  <variable name="X(15,18,46)" index="13485" value="1"/>
  <variable name="X(15,37,10)" index="13617" value="1"/>
  <variable name="X(16,15,124)" index="13899" value="1"/>
  <variable name="X(17,39,11)" index="13954" value="1"/>
  <variable name="X(18,8,82)" index="14193" value="1"/>
  <variable name="X(18,15,10)" index="14289" value="1"/>
  <variable name="X(18,17,11)" index="14458" value="1"/>
  <variable name="X(18,19,42)" index="14657" value="1"/>
  <variable name="X(18,20,46)" index="14829" value="1"/>
  <variable name="X(18,40,12)" index="14963" value="1"/>
  <variable name="X(19,11,50)" index="15169" value="1"/>
  <variable name="X(19,12,42)" index="15329" value="1"/>
  <variable name="X(19,18,74)" index="15529" value="1"/>
  <variable name="X(19,41,13)" index="15636" value="1"/>
  <variable name="X(20,2,1)" index="15792" value="1"/>
  <variable name="X(20,8,4)" index="15963" value="1"/>
  <variable name="X(20,11,7)" index="16134" value="1"/>
  <variable name="X(20,14,39)" index="16334" value="1"/>
  <variable name="X(20,18,10)" index="16473" value="1"/>
  <variable name="X(21,12,8)" index="16639" value="1"/>
  <variable name="X(21,13,80)" index="16879" value="1"/>
  <variable name="X(21,43,14)" index="16981" value="1"/>
 </variables>
</CPLEXSolution>
